c 1 A1
c 2 C3
c 3 C4
c 4 A2
c 5 C5
c 6 C7
c 7 C8
c 8 C9
c 9 C10
c 10 A6
c 11 C11
p cnf 11 20
1 0
1 -4 0
1 -2 0
1 -3 0
4 2 3 -1 0
4 -5 0
4 -10 0
4 -6 0
4 -7 0
4 -8 0
4 -9 0
5 10 6 7 8 9 -4 0
10 -11 0
11 -10 0
4 2 5 6 -8 0
4 -2 5 -6 -8 0
-2 5 6 8 0
-4 -2 5 6 0
2 5 -6 8 0
-4 2 5 -6 0

